decision_x1=[0,2];
decision_x2=[0,2];
decision_x3=[0,2];
decision_x4=[0,2];
decision_x5=[0,2];
decision_x6=[0,2];
decision_x7=[0,2];
decision_x8=[0,2];
decision_x9=[0,2];
decision_x10=[0,2];
random_y1=[0,2];
random_y2=[0,2];
constraint_x2_x1=[
0,1,2.3|
0,2,0.39|
1,0,1.9|
1,2,7.4|
2,0,6.6|
2,1,9.8|
];
constraint_x3_x1=[
0,1,7.4|
0,2,4.5|
1,0,8.6|
1,2,7.6|
2,0,8.4|
2,1,0.97|
];
constraint_x3_x2=[
0,1,1.6|
0,2,5.3|
1,0,7.9|
1,2,0.31|
2,0,9.5|
2,1,2.7|
];
constraint_x4_x1=[
0,1,5.5|
0,2,0.91|
1,0,9.6|
1,2,0.16|
2,0,3.9|
2,1,3.7|
];
constraint_x4_x3=[
0,1,7.1|
0,2,1.9|
1,0,2.8|
1,2,5|
2,0,0.65|
2,1,8.1|
];
constraint_x5_x2=[
0,1,9.2|
0,2,3.4|
1,0,6.1|
1,2,2.9|
2,0,4.5|
2,1,3.2|
];
constraint_x5_x4=[
0,1,3.7|
0,2,5.3|
1,0,3.9|
1,2,1.7|
2,0,6.5|
2,1,5.6|
];
constraint_x6_x1=[
0,1,5.7|
0,2,8.4|
1,0,6.5|
1,2,3.8|
2,0,4.5|
2,1,2.8|
];
constraint_x6_x3=[
0,1,9|
0,2,5.8|
1,0,8.6|
1,2,0.13|
2,0,4.6|
2,1,5.6|
];
constraint_x6_x4=[
0,1,3.3|
0,2,6|
1,0,9.6|
1,2,3|
2,0,3.6|
2,1,7|
];
constraint_x6_x5=[
0,1,2.8|
0,2,0.09|
1,0,8.6|
1,2,4|
2,0,8.7|
2,1,6.4|
];
constraint_x7_x2=[
0,1,0.16|
0,2,8.5|
1,0,8.7|
1,2,9.9|
2,0,5.3|
2,1,4.6|
];
constraint_x7_x3=[
0,1,6.7|
0,2,9.7|
1,0,0.16|
1,2,5.2|
2,0,6.9|
2,1,3.3|
];
constraint_x7_x6=[
0,1,9.3|
0,2,3.4|
1,0,2.6|
1,2,4.4|
2,0,3.3|
2,1,7|
];
constraint_x8_x1=[
0,1,5.8|
0,2,9.3|
1,0,2.7|
1,2,6.6|
2,0,3.7|
2,1,2.5|
];
constraint_x8_x4=[
0,1,5|
0,2,1.8|
1,0,9.4|
1,2,4.4|
2,0,6.4|
2,1,3|
];
constraint_x8_x5=[
0,1,7.1|
0,2,9.6|
1,0,8.7|
1,2,8.8|
2,0,2|
2,1,4.1|
];
constraint_x9_x3=[
0,1,2.2|
0,2,7|
1,0,4.4|
1,2,9.5|
2,0,3.3|
2,1,5.4|
];
constraint_x9_x4=[
0,1,5.8|
0,2,1.5|
1,0,9|
1,2,2.1|
2,0,9.7|
2,1,6.8|
];
constraint_x9_x8=[
0,1,0.63|
0,2,0.81|
1,0,4.4|
1,2,8.8|
2,0,8.4|
2,1,2.8|
];
constraint_x10_x2=[
0,1,6.3|
0,2,4.5|
1,0,7.8|
1,2,3.9|
2,0,5.9|
2,1,2.8|
];
constraint_x10_x4=[
0,1,8.7|
0,2,0.98|
1,0,7|
1,2,5.4|
2,0,0.76|
2,1,4.8|
];
constraint_x10_x5=[
0,1,5|
0,2,5.1|
1,0,2|
1,2,9|
2,0,2.2|
2,1,1|
];
constraint_x1_y1=[
0,0,8.9|
0,1,7.4|
0,2,2.4|
1,0,3.1|
1,1,0.081|
1,2,6|
2,0,9.8|
2,1,7.2|
2,2,0.43|
];
constraint_x2_y2=[
0,0,1.7|
0,1,1.4|
0,2,0.84|
1,0,1.2|
1,1,2.9|
1,2,6.9|
2,0,4|
2,1,3|
2,2,9.2|
];
initial_distribution_y1=[0.2,0.25,0.54];
initial_distribution_y2=[0.25,0.47,0.28];
transition_y1=[
0.38,0.36,0.26|
0.3,0.29,0.41|
0.56,0.31,0.13|
];
transition_y2=[
0.3,0.21,0.49|
0.14,0.82,0.045|
0.29,0.14,0.56|
];
